50
21664

551 635
511 340
457 138
672 648
161 603
297 923
575 279
539 7
563 200
483 319
726 606
905 898
963 635
577 668
422 291
153 411
472 714
197 518
829 885
822 478
16 943
120 1000
36 963
656 720
249 413
477 595
939 594
896 519
263 142
909 310
696 826
751 216
719 981
253 21
193 164
462 204
235 427
503 743
377 74
975 116
415 759
20 981
135 839
545 36
629 596
724 799
13 314
554 708
172 10
24 220
